p cnf 25 80
1 5 9 13 0
2 6 10 14 0
3 7 11 15 0
4 8 12 16 0
-1 -5 0
-1 -9 0
-1 -13 0
-5 -9 0
-5 -13 0
-9 -13 0
-2 -6 0
-2 -10 0
-2 -14 0
-6 -10 0
-6 -14 0
-10 -14 0
-3 -7 0
-3 -11 0
-3 -15 0
-7 -11 0
-7 -15 0
-11 -15 0
-4 -8 0
-4 -12 0
-4 -16 0
-8 -12 0
-8 -16 0
-12 -16 0
-1 -2 0
-1 -3 0
-1 -4 0
-2 -3 0
-2 -4 0
-3 -4 0
-5 -6 0
-5 -7 0
-5 -8 0
-6 -7 0
-6 -8 0
-7 -8 0
-9 -10 0
-9 -11 0
-9 -12 0
-10 -11 0
-10 -12 0
-11 -12 0
-13 -14 0
-13 -15 0
-13 -16 0
-14 -15 0
-14 -16 0
-15 -16 0
17 20 23 0
18 21 24 0
19 22 25 0
-17 -20 0
-17 -23 0
-20 -23 0
-18 -21 0
-18 -24 0
-21 -24 0
-19 -22 0
-19 -25 0
-22 -25 0
-17 -18 0
-17 -19 0
-18 -19 0
-20 -21 0
-20 -22 0
-21 -22 0
-23 -24 0
-23 -25 0
-24 -25 0
17 18 19  -13 0
17 18 19  -14 0
17 18 19  -15 0
17 18 19  -16 0

13 14 15 16  -17 0
13 14 15 16  -18 0
13 14 15 16  -19 0

